problems/GracefulGears/GracefulGears-models/compact/O2/lingeling/model-n12-solution000001.eprime-solution
language ESSENCE' 1.0

letting colour_Function1D be
        [23, 9, 1, 34, 3, 14, 7, 22, 6, 11, 8, 30, 5, 31, 25, 16, 33, 32, 12, 36, 0, 21, 17, 4, 35; int(0..24)]
letting edgeID_Function1D be
        [14, 8, 33, 31, 11, 7, 15, 16, 5, 3, 22, 25, 26, 6, 9, 17, 1, 20, 24, 36, 21, 4, 13, 19, 12, 34, 32, 28, 29, 27,
         30, 10, 2, 23, 35, 18; int(0..35)]
